c This is QMaxSAT 2017 based on 14.07
c This is Glucose 3.0
c This is MiniSat 2.2.0
c WARNING: for repeatability, setting FPU to use double precision
c card = mrwto, comp = 0, pmodel = 0, narr = 3, mct = 16, verb = 0
cr firstCPXsol 0 0 0
c top = 214379
c |  Number of variables:    648                                              |
c |  Number of clauses:      9366                                             |
c |  Weight of hard clauses: 214379                                           |
c |  Number of soft clauses: 900                                              |
c |  Number of unit soft clauses: 0                                           |
c |  Maximum Cardinality (by unit): 776370       (0           )               |
c last restart ## conflicts  :  8 167 
o 6028 | cpuTime 0.030449 s
c Sum of weights = 258790
c A number of soft clauses remained = 300
c MRWTO encoding for Pseudo-Boolean Constraints
c sizeMax=6028
c No.0 Divisor=9	generated by pow1
c No.1 Divisor=9	generated by pow1
c No.2 Divisor=9	generated by pow1
c No.3 Divisor=9	generated by pow1
c p0= 9	p1= 9	p2= 9	p3= 9	
c number of digits = 5
c linkingVar[0].size = 9, linkingVar[1].size = 9, linkingVar[2].size = 9, linkingVar[3].size = 9, linkingVar[4].size = 1, 
c Pseudo-Boolean Constraints: 7844 variables and 65117 clauses
c Sum of weights = 258790
c A number of soft clauses remained = 300
c MRWTO encoding for Pseudo-Boolean Constraints
c sizeMax=6028
c No.0 Divisor=9	generated by pow1
c No.1 Divisor=9	generated by pow1
c No.2 Divisor=9	generated by pow1
c No.3 Divisor=9	generated by pow1
c p0= 9	p1= 9	p2= 9	p3= 9	
c number of digits = 5
c linkingVar[0].size = 9, linkingVar[1].size = 9, linkingVar[2].size = 9, linkingVar[3].size = 9, linkingVar[4].size = 1, 
c Pseudo-Boolean Constraints: 7844 variables and 65117 clauses
c Sum of weights = 258790
c A number of soft clauses remained = 300
c MRWTO encoding for Pseudo-Boolean Constraints
c sizeMax=6028
c No.0 Divisor=9	generated by pow1
c No.1 Divisor=9	generated by pow1
c No.2 Divisor=9	generated by pow1
c No.3 Divisor=9	generated by pow1
c p0= 9	p1= 9	p2= 9	p3= 9	
c number of digits = 5
c linkingVar[0].size = 9, linkingVar[1].size = 9, linkingVar[2].size = 9, linkingVar[3].size = 9, linkingVar[4].size = 1, 
c Pseudo-Boolean Constraints: 7844 variables and 65117 clauses
c last restart ## conflicts  :  341 1381 
o 5740 | cpuTime 0.137465 s
c last restart ## conflicts  :  2532 769 
o 5371 | cpuTime 0.232052 s
c last restart ## conflicts  :  98 689 
o 5265 | cpuTime 0.606338 s
c last restart ## conflicts  :  179 955 
o 5213 | cpuTime 0.683725 s
c last restart ## conflicts  :  164 891 
o 5176 | cpuTime 1.12686 s
c last restart ## conflicts  :  163 1005 
o 5152 | cpuTime 1.20194 s
c last restart ## conflicts  :  58 880 
o 5144 | cpuTime 1.27154 s
s UNKNOWN
c Search is stopped by a limit (maybe time-limit)
cr positiVarArr: [ | 18(1->16) | 31(1->11) | 42(1->4) | 59(2->3) | 73(3->1) | 97(4->5) | 122(5->12) | 130(6->2) | 160(7->14) | 171(8->7) | 197(9->15) | 200(10->1) | 219(11->1) | 242(12->6) | 264(13->10) | 281(14->9) | 303(15->13) | 316(16->8) | ]
cr the 1-th chain: [ 1->16->8->7->14->9->15->13->10->1 ] (#non-depot=8) {#cumul.=9}
cr the 2-th chain: [ 1->11->1 ] (#non-depot=1) {#cumul.=10}
cr the 3-th chain: [ 1->4->5->12->6->2->3->1 ] (#non-depot=6) {#cumul.=16}
c Latest Answer = 0 by 8 loops
c restarts              : 68726
c conflicts             : 10761328       (2992 /sec)
c decisions             : 20448057       (0.00 % random) (5685 /sec)
c propagations          : 546027746      (151794 /sec)
c conflict literals     : 987427132      (10.86 % deleted)
c Memory used           : 454.00 MB
c CPU time              : 3597.16 s
